VRPTWMS/instances/mip/toDelete/freight_old/5/N5-C_DV10-C_SV50_F12_0_No_1.log

Gurobi 6.0.4 (win64) logging started 06/13/15 23:06:27

Warning: unknown variable 'kDash_dN' in bounds section
Read LP format model from file C:\MT\repository\VRPTWMS\instances\mip\freight\N5-C_DV10-C_SV50_F12_0_No_1.lp
Reading time = 0.00 seconds
(null): 161 rows, 110 columns, 603 nonzeros
Optimize a model with 161 rows, 110 columns and 603 nonzeros
Model has 180 quadratic constraints
WARNING: Only barrier available for SOCP models
Coefficient statistics:
  Matrix range    [1e+00, 1e+02]
  Objective range [5e+00, 1e+03]
  Bounds range    [1e+00, 1e+02]
  RHS range       [1e+00, 1e+02]
Presolve removed 29 rows and 13 columns
Presolve time: 0.01s
Presolved: 563 rows, 325 columns, 2380 nonzeros
Variable types: 203 continuous, 122 integer (88 binary)
Found heuristic solution: objective 5187.7200000
Optimize a model with 563 rows, 325 columns and 2380 nonzeros
Coefficient statistics:
  Matrix range    [1e+00, 1e+02]
  Objective range [5e+00, 1e+03]
  Bounds range    [1e+00, 1e+02]
  RHS range       [1e+00, 1e+02]
Presolve removed 29 rows and 17 columns
Presolved: 534 rows, 310 columns, 2249 nonzeros


Root relaxation: objective 7.999601e+02, 87 iterations, 0.00 seconds

    Nodes    |    Current Node    |     Objective Bounds      |     Work
 Expl Unexpl |  Obj  Depth IntInf | Incumbent    BestBd   Gap | It/Node Time

     0     0  799.96005    0   46 5187.72000  799.96005  84.6%     -    0s
H    0     0                    4167.4000000  799.96005  80.8%     -    0s
     0     0 1098.63206    0   30 4167.40000 1098.63206  73.6%     -    0s
H    0     0                    3131.6200000 1098.63206  64.9%     -    0s
     0     0 1117.39733    0   13 3131.62000 1117.39733  64.3%     -    0s
     0     0 1119.19689    0   33 3131.62000 1119.19689  64.3%     -    0s
     0     0 1119.35821    0   34 3131.62000 1119.35821  64.3%     -    0s
     0     0 1119.35821    0   32 3131.62000 1119.35821  64.3%     -    0s
H    0     0                    2177.8900000 1119.35821  48.6%     -    0s
     0     0 1119.35821    0   33 2177.89000 1119.35821  48.6%     -    0s
     0     0 1119.35821    0   33 2177.89000 1119.35821  48.6%     -    0s
     0     0 1119.35821    0   33 2177.89000 1119.35821  48.6%     -    0s
     0     2 1119.35821    0   33 2177.89000 1119.35821  48.6%     -    0s
H   74    13                    2160.3800000 1152.84400  46.6%  29.6    0s

Cutting planes:
  Gomory: 1
  Cover: 16
  Implied bound: 38
  Clique: 28
  MIR: 14
  GUB cover: 4

Explored 196 nodes (5274 simplex iterations) in 0.18 seconds
Thread count was 2 (of 4 available processors)

Optimal solution found (tolerance 1.00e-04)
Best objective 2.160380000000e+03, best bound 2.160380000000e+03, gap 0.0%
k_c1	9.0
k_c2	0.0
k_c3	5.9999999999999645
k_c4	-4.440892098500626E-16
k_c5	10.0
k_dN	-0.0
kDash_c1	-4.440892098500626E-16
kDash_c2	5.0
kDash_c3	-0.0
kDash_c4	6.0
kDash_c5	9.0
kDash_dN	-0.0
o_1	0.0
o_2	1.0
o_3	0.0
o_4	1.0
o_5	-0.0
p_1	0.0
p_2	1.0
p_3	-0.0
p_4	1.0000000000000036
p_5	-0.0
phi_c1	8.000000000000004
phi_c2	1.0
phi_c3	2.9999999999999982
phi_c4	4.999999999999998
phi_c5	10.0
phi_d0	12.0
phi_dN	-0.0
pi_c1	50.0
pi_c2	40.0
pi_c3	50.0
pi_c4	50.0
pi_c5	50.0
pi_dN	-0.0
tauD_c1	30.0
tauD_c2	82.0
tauD_c3	70.0
tauD_c4	46.0
tauD_c5	6.0
tauD_d0	-0.0
tauD_dN	100.0
tauS_c1	83.0
tauS_c2	59.0
tauS_c3	88.0
tauS_c4	4.0
tauS_c5	86.0
tauS_d0	-0.0
tauS_dN	93.0
x_c1_c4	1.0
x_c2_dN	1.0
x_c3_c2	1.0
x_c4_c3	1.0
x_c5_c1	1.0
x_d0_c5	1.0
z_c2_dN	1.0
z_c4_c2	1.0
z_d0_c4	1.0
